************************************************************************
file with basedata            : md381_.bas
initial value random generator: 1562998550
************************************************************************
projects                      :  1
jobs (incl. supersource/sink ):  22
horizon                       :  168
RESOURCES
  - renewable                 :  2   R
  - nonrenewable              :  2   N
  - doubly constrained        :  0   D
************************************************************************
PROJECT INFORMATION:
pronr.  #jobs rel.date duedate tardcost  MPM-Time
    1     20      0       24       19       24
************************************************************************
PRECEDENCE RELATIONS:
jobnr.    #modes  #successors   successors
   1        1          3           2   3   4
   2        3          1          15
   3        3          3           5   7  10
   4        3          3           5   6  10
   5        3          3          11  14  19
   6        3          3           7   9  16
   7        3          3           8  18  21
   8        3          1          15
   9        3          3          12  14  18
  10        3          3          12  19  20
  11        3          2          12  13
  12        3          1          17
  13        3          2          16  20
  14        3          2          15  17
  15        3          1          20
  16        3          1          17
  17        3          1          21
  18        3          1          19
  19        3          1          22
  20        3          1          22
  21        3          1          22
  22        1          0        
************************************************************************
REQUESTS/DURATIONS:
jobnr. mode duration  R 1  R 2  N 1  N 2
------------------------------------------------------------------------
  1      1     0       0    0    0    0
  2      1     1       8    9    8    8
         2     2       7    8    3    7
         3     4       7    4    2    7
  3      1     1      10    9    6    6
         2     4       8    7    4    6
         3     7       7    3    3    2
  4      1     2       6    3    8    8
         2     2       7    3    5    6
         3     9       4    1    3    2
  5      1     4      10    9   10    5
         2     6       9    7    9    5
         3     8       9    5    7    5
  6      1     2       7    6    6    8
         2     4       7    6    6    4
         3    10       5    6    5    4
  7      1     4       9    8    8    4
         2     6       9    7    8    4
         3     9       9    7    6    2
  8      1     2       8    9    8    8
         2     6       8    9    6    6
         3     9       8    6    5    4
  9      1     3       2    7    8    9
         2     6       2    6    7    7
         3     8       1    3    6    7
 10      1     7       6    4    3    4
         2     7       7    3    3    4
         3    10       5    1    3    4
 11      1     7       8    9   10    6
         2     7      10    7    8    8
         3     8       7    7    6    5
 12      1     2       3    9    8    5
         2     3       2    6    7    4
         3     7       2    5    6    4
 13      1     1       6    6    9    7
         2     8       5    4    8    6
         3    10       5    3    8    6
 14      1     2      10   10   10    1
         2     3      10    9    7    1
         3     9       9    8    3    1
 15      1     2       6    9    5    4
         2     6       6    8    4    4
         3    10       3    7    4    3
 16      1     4       6   10   10    7
         2     5       4    8   10    6
         3     5       4    7   10    7
 17      1     2       9    6    7    8
         2     5       9    6    5    4
         3     7       9    6    5    3
 18      1     1       9    8    6    7
         2     4       7    6    3    6
         3     8       6    2    2    5
 19      1     5       9    8    4    5
         2    10       2    7    4    4
         3    10       4    7    4    3
 20      1     3       4    4    9    9
         2     8       4    4    8    7
         3    10       3    1    4    3
 21      1     4       4    9    7    5
         2     6       4    8    5    4
         3    10       3    7    4    3
 22      1     0       0    0    0    0
************************************************************************
RESOURCEAVAILABILITIES:
  R 1  R 2  N 1  N 2
   18   16  150  126
************************************************************************
MAXIMAL LAGS:
from  to  type  delay
    1   12   ES      0
    1    2   ES      0
    2   12   ES      0
    1    3   ES      0
    3   12   ES      0
    1    4   ES      0
    4   12   ES      0
    1    5   ES      0
    5   12   ES      0
    1    6   ES      0
    6   12   ES      0
    1    7   ES      0
    7   12   ES      0
    1    8   ES      0
    8   12   ES      0
    1    9   ES      0
    9   12   ES      0
    1   10   ES      0
   10   12   ES      0
    1   11   ES      0
   11   12   ES      0
    1   12   ES      0
    2   15   SS      8
    2   15   SE     -1
    2   15   ES     -1
    2   15   EE     -5
    3    5   SS     -9
    3    5   SE      2
    3    5   ES     -2
    3    5   EE     -2
    3    7   SS    -12
    3    7   SE     -4
    7    3   SE      0
    3    7   ES      0
    3    7   EE     -9
    3   10   SS      1
    3   10   SE     -9
    3   10   ES     -3
    3   10   EE     10
    4    5   SS     -5
    4    5   SE      5
    4    5   ES     11
    4    5   EE     -4
    4    6   SS    -11
    4    6   SE     -5
    4    6   ES      7
    4    6   EE      2
    4   10   SS     -8
    4   10   SE      0
    4   10   ES      3
    4   10   EE     -2
    5   11   SS     -3
    5   11   SE     -1
    5   11   ES      2
    5   11   EE      1
    5   14   SS      6
    5   14   SE      8
    5   14   ES    -11
    5   14   EE      6
    5   19   SS     -3
    5   19   SE    -10
    5   19   ES     -4
    5   19   EE     -8
    6    7   SS     -1
    6    7   SE      9
    6    7   ES     12
    6    7   EE    -11
    6    9   SS      7
    6    9   SE     -1
    6    9   ES      0
    6    9   EE     -6
    6   16   SS      1
    6   16   SE      9
    6   16   ES     11
    6   16   EE    -11
    7    8   SS     -6
    7    8   SE      4
    7    8   ES     -2
    7    8   EE      8
    7   18   SS     -2
    7   18   SE     -7
    7   18   ES      4
    7   18   EE     12
    7   21   SS      4
    7   21   SE     -7
    7   21   ES     -6
    7   21   EE     -9
    8   15   SS     -6
    8   15   SE     -8
    8   15   ES      7
    8   15   EE      7
    9   14   SS      1
    9   14   SE      3
    9   14   ES      4
    9   14   EE     -6
    9   18   SS     -3
    9   18   SE     -6
    9   18   ES     -1
    9   18   EE      5
   10   19   SS     10
   10   19   SE      9
   10   19   ES      9
   10   19   EE     -1
   10   20   SS      7
   10   20   SE      6
   10   20   ES     -9
   10   20   EE      7
   11   13   SS      2
   11   13   SE     12
   11   13   ES      2
   11   13   EE      1
   12   17   SS     -5
   12   17   SE      4
   12   17   ES     -1
   12   17   EE      4
   13   16   SS      0
   13   16   SE     10
   13   16   ES      9
   13   16   EE      6
   13   20   SS     -8
   13   20   SE     -8
   13   20   ES     -2
   13   20   EE     10
   14   15   SS      8
   14   15   SE     10
   14   15   ES     -4
   14   15   EE     -5
   14   17   SS      3
   14   17   SE     10
   14   17   ES      1
   14   17   EE     -6
   15   20   SS      1
   15   20   SE      0
   15   20   ES     -7
   15   20   EE      4
   16   17   SS      3
   16   17   SE     -9
   16   17   ES    -10
   16   17   EE      2
   17   21   SS     -9
   17   21   SE      1
   17   21   ES     -1
   17   21   EE     -6
   18   19   SS      8
   18   19   SE     -2
   18   19   ES      7
   18   19   EE     12
   19   22   SS     -2
   19   22   SE     -1
   19   22   ES     -6
   19   22   EE      7
   20   22   SS     -4
   20   22   SE     -1
   20   22   ES    -11
   20   22   EE      1
   21   22   SS      9
   21   22   SE      6
   21   22   ES      4
   21   22   EE      7
************************************************************************
